interdiction/MCDM/NO_CORR/GEN_FROM_60/13_ITEMS_1000_GEN/K5013W01.KNP.mps
NAME          BLANK   
ROWS
 N  OBJROW
 L  R0000000
COLUMNS
    C0000000  OBJROW     -495.         R0000000  323.        
    C0000001  OBJROW     -99.          R0000000  979.        
    C0000002  OBJROW     -164.         R0000000  859.        
    C0000003  OBJROW     -629.         R0000000  512.        
    C0000004  OBJROW     -744.         R0000000  868.        
    C0000005  OBJROW     -441.         R0000000  341.        
    C0000006  OBJROW     -193.         R0000000  589.        
    C0000007  OBJROW     -673.         R0000000  229.        
    C0000008  OBJROW     -458.         R0000000  297.        
    C0000009  OBJROW     -913.         R0000000  162.        
    C0000010  OBJROW     -285.         R0000000  857.        
    C0000011  OBJROW     -543.         R0000000  423.        
    C0000012  OBJROW     -499.         R0000000  250.        
RHS
    RHS       R0000000  14156.      
BOUNDS
 BV BOUND     C0000000  1.          
 BV BOUND     C0000001  1.          
 BV BOUND     C0000002  1.          
 BV BOUND     C0000003  1.          
 BV BOUND     C0000004  1.          
 BV BOUND     C0000005  1.          
 BV BOUND     C0000006  1.          
 BV BOUND     C0000007  1.          
 BV BOUND     C0000008  1.          
 BV BOUND     C0000009  1.          
 BV BOUND     C0000010  1.          
 BV BOUND     C0000011  1.          
 BV BOUND     C0000012  1.          
ENDATA
