data/MCDM/NO_CORR/GEN_FROM_60/13_ITEMS_1000_GEN/K5013W01.KNP.txt
N 13
M 14
LC 13
LC 14
LC 15
LC 16
LC 17
LC 18
LC 19
LC 20
LC 21
LC 22
LC 23
LC 24
LC 25
LR 1
LR 2
LR 3
LR 4
LR 5
LR 6
LR 7
LR 8
LR 9
LR 10
LR 11
LR 12
LR 13
LR 14
LO -495
LO -99
LO -164
LO -629
LO -744
LO -441
LO -193
LO -673
LO -458
LO -913
LO -285
LO -543
LO -499
OS 1
IC 802
IC 353
IC 700
IC 215
IC 838
IC 88
IC 515
IC 726
IC 669
IC 606
IC 225
IC 523
IC 766
IB 3513
